
===== New CPLEX run =====
Instance: /home/yorig/tuner/mpils-tests/instances/miplib/medium-1/momentum1.mps
Config: /scratch/yorig/mpils-results-grid-ticks-10000/medium-1/16proc/seed-5/6_momentum1_seed-5_20260425_215516/expansion/config_param_CPXPARAM_MIP_Strategy_VariableSelect_-1_iter_1.prm
========================

Selected objective sense:  MINIMIZE
Selected objective  name:  MINIMIZE
Selected RHS        name:  rhs
Selected bound      name:  bnd
Version identifier: 22.1.2.0 | 2024-11-26 | 0edbb82fd
CPXPARAM_Threads                                 8
CPXPARAM_Parallel                                1
CPXPARAM_MIP_Cuts_Cliques                        -1
CPXPARAM_MIP_Strategy_VariableSelect             -1
CPXPARAM_MIP_Cuts_FlowCovers                     2
CPXPARAM_MIP_Cuts_Implied                        1
CPXPARAM_MIP_Limits_GomoryCand                   25
CPXPARAM_MIP_Cuts_Gomory                         1
CPXPARAM_MIP_Cuts_PathCut                        1
CPXPARAM_MIP_Cuts_Disjunctive                    -1
CPXPARAM_Emphasis_MIP                            4
CPXPARAM_DetTimeLimit                            10000
Tried aggregator 3 times.
MIP Presolve eliminated 30810 rows and 1362 columns.
MIP Presolve modified 22293 coefficients.
Aggregator did 232 substitutions.
Reduced MIP has 11638 rows, 3580 columns, and 46688 nonzeros.
Reduced MIP has 1625 binaries, 0 generals, 0 SOSs, and 0 indicators.
Presolve time = 0.10 sec. (139.58 ticks)
Found incumbent of value 533875.101733 after 0.12 sec. (154.72 ticks)
Probing fixed 392 vars, tightened 1078 bounds.
Probing changed sense of 113 constraints.
Probing time = 0.08 sec. (90.30 ticks)
Cover probing fixed 0 vars, tightened 267 bounds.
Tried aggregator 2 times.
MIP Presolve eliminated 3295 rows and 847 columns.
MIP Presolve modified 7082 coefficients.
Aggregator did 11 substitutions.
Reduced MIP has 8332 rows, 2722 columns, and 31418 nonzeros.
Reduced MIP has 1168 binaries, 0 generals, 0 SOSs, and 0 indicators.
Presolve time = 0.04 sec. (44.43 ticks)
Probing fixed 1 vars, tightened 256 bounds.
Probing time = 0.04 sec. (44.20 ticks)
Cover probing fixed 0 vars, tightened 190 bounds.
Tried aggregator 1 time.
Detecting symmetries...
MIP Presolve eliminated 26 rows and 2 columns.
MIP Presolve modified 5059 coefficients.
Reduced MIP has 8306 rows, 2720 columns, and 31355 nonzeros.
Reduced MIP has 1167 binaries, 0 generals, 0 SOSs, and 0 indicators.
Presolve time = 0.02 sec. (22.06 ticks)
Probing fixed 0 vars, tightened 90 bounds.
Probing time = 0.04 sec. (40.55 ticks)
Cover probing fixed 0 vars, tightened 69 bounds.
Clique table members: 18692.
MIP emphasis: hidden feasible solutions.
MIP search method: dynamic search.
Parallel mode: deterministic, using up to 8 threads.
Root relaxation solution time = 0.11 sec. (144.31 ticks)

        Nodes                                         Cuts/
   Node  Left     Objective  IInf  Best Integer    Best Bound    ItCnt     Gap

*     0+    0                       533875.1017    44880.8652            91.59%
*     0+    0                       533847.9795    44880.8652            91.59%
*     0+    0                       333826.8649    44880.8652            86.56%
*     0+    0                       333809.0666    44880.8652            86.55%
      0     0    79213.0345   216   333809.0666    79213.0345     1531   76.27%
      0     0    96254.6467   297   333809.0666     Cuts: 174     2064   71.16%
      0     0    96260.5560   272   333809.0666      Cuts: 81     2379   71.16%
      0     0    96261.7287   286   333809.0666      Cuts: 29     2510   71.16%
*     0+    0                       320982.4254    96261.7287            70.01%
      0     0  -1.00000e+75     0   320982.4254    96261.7287     2510   70.01%
      0     0    96272.4517   273   320982.4254      Cuts: 11     2614   70.01%
      0     0    96274.5936   256   320982.4254      Cuts: 25     2665   70.01%
Detecting symmetries...
      0     0    96276.5688   258   320982.4254      Cuts: 28     2717   70.01%
Detecting symmetries...
      0     2    96276.5688   258   320982.4254    96276.5688     2717   70.01%
Elapsed time = 3.33 sec. (5382.89 ticks, tree = 0.02 MB, solutions = 5)
     43    35    96452.9343   232   320982.4254    96277.2788     4920   70.01%
     80    66    96482.0720   228   320982.4254    96277.2788     9243   70.01%
    113    61   102692.6557   207   320982.4254    96277.2788     9665   70.01%
    140   102   102731.6657   195   320982.4254    96277.2788    15493   70.01%
    156   132   105946.9062   189   320982.4254    96277.2788    21949   70.01%
    197   158   107206.0774   188   320982.4254    96277.2788    29717   70.01%
    229   176   111320.5963   160   320982.4254    96277.2788    31889   70.01%
    269   222   101874.2940   136   320982.4254    96277.2788    36488   70.01%
    303   232   106323.7473   206   320982.4254    96277.2788    39009   70.01%
    422   332    98278.8588   193   320982.4254    96277.2788    57094   70.01%
Elapsed time = 5.46 sec. (8523.26 ticks, tree = 0.75 MB, solutions = 5)
*   552+  401                       320982.4251    96277.2788            70.01%
    588   482   110805.3014   133   320982.4251    96277.2788    71734   70.01%

Implied bound cuts applied:  2
Flow cuts applied:  112
Flow path cuts applied:  0
Zero-half cuts applied:  42
Gomory fractional cuts applied:  4

Root node processing (before b&c):
  Real time             =    3.30 sec. (5351.10 ticks)
Parallel b&c, 8 threads:
  Real time             =    3.20 sec. (4671.73 ticks)
  Sync time (average)   =    0.38 sec.
  Wait time (average)   =    0.00 sec.
                          ------------
Total (root+branch&cut) =    6.50 sec. (10022.83 ticks)
Gap: 70.01%
Upper bound: 320982
Lower bound: 96277.3
End of CPLEX run. Time: 6.50472 seconds

===== New CPLEX run =====
Instance: /home/yorig/tuner/mpils-tests/instances/miplib/medium-1/momentum1.mps
Config: /scratch/yorig/mpils-results-grid-ticks-10000/medium-1/16proc/seed-5/6_momentum1_seed-5_20260425_215516/expansion/config_param_CPXPARAM_MIP_Strategy_VariableSelect_1_iter_1.prm
========================

Selected objective sense:  MINIMIZE
Selected objective  name:  MINIMIZE
Selected RHS        name:  rhs
Selected bound      name:  bnd
Version identifier: 22.1.2.0 | 2024-11-26 | 0edbb82fd
CPXPARAM_Threads                                 8
CPXPARAM_Parallel                                1
CPXPARAM_MIP_Cuts_Cliques                        -1
CPXPARAM_MIP_Strategy_VariableSelect             1
CPXPARAM_MIP_Cuts_FlowCovers                     2
CPXPARAM_MIP_Cuts_Implied                        1
CPXPARAM_MIP_Limits_GomoryCand                   25
CPXPARAM_MIP_Cuts_Gomory                         1
CPXPARAM_MIP_Cuts_PathCut                        1
CPXPARAM_MIP_Cuts_Disjunctive                    -1
CPXPARAM_Emphasis_MIP                            4
CPXPARAM_DetTimeLimit                            10000
Tried aggregator 3 times.
MIP Presolve eliminated 30810 rows and 1362 columns.
MIP Presolve modified 22293 coefficients.
Aggregator did 232 substitutions.
Reduced MIP has 11638 rows, 3580 columns, and 46688 nonzeros.
Reduced MIP has 1625 binaries, 0 generals, 0 SOSs, and 0 indicators.
Presolve time = 0.10 sec. (139.58 ticks)
Found incumbent of value 533875.101733 after 0.12 sec. (154.72 ticks)
Probing fixed 392 vars, tightened 1078 bounds.
Probing changed sense of 113 constraints.
Probing time = 0.08 sec. (90.30 ticks)
Cover probing fixed 0 vars, tightened 267 bounds.
Tried aggregator 2 times.
MIP Presolve eliminated 3295 rows and 847 columns.
MIP Presolve modified 7082 coefficients.
Aggregator did 11 substitutions.
Reduced MIP has 8332 rows, 2722 columns, and 31418 nonzeros.
Reduced MIP has 1168 binaries, 0 generals, 0 SOSs, and 0 indicators.
Presolve time = 0.04 sec. (44.43 ticks)
Probing fixed 1 vars, tightened 256 bounds.
Probing time = 0.04 sec. (44.20 ticks)
Cover probing fixed 0 vars, tightened 190 bounds.
Tried aggregator 1 time.
Detecting symmetries...
MIP Presolve eliminated 26 rows and 2 columns.
MIP Presolve modified 5059 coefficients.
Reduced MIP has 8306 rows, 2720 columns, and 31355 nonzeros.
Reduced MIP has 1167 binaries, 0 generals, 0 SOSs, and 0 indicators.
Presolve time = 0.02 sec. (22.06 ticks)
Probing fixed 0 vars, tightened 90 bounds.
Probing time = 0.04 sec. (40.55 ticks)
Cover probing fixed 0 vars, tightened 69 bounds.
Clique table members: 18692.
MIP emphasis: hidden feasible solutions.
MIP search method: dynamic search.
Parallel mode: deterministic, using up to 8 threads.
Root relaxation solution time = 0.12 sec. (144.31 ticks)

        Nodes                                         Cuts/
   Node  Left     Objective  IInf  Best Integer    Best Bound    ItCnt     Gap

*     0+    0                       533875.1017    44880.8652            91.59%
*     0+    0                       533847.9795    44880.8652            91.59%
*     0+    0                       333826.8649    44880.8652            86.56%
*     0+    0                       333809.0666    44880.8652            86.55%
      0     0    79213.0345   216   333809.0666    79213.0345     1531   76.27%
      0     0    96254.6467   297   333809.0666     Cuts: 174     2064   71.16%
      0     0    96260.5560   272   333809.0666      Cuts: 81     2379   71.16%
      0     0    96261.7287   286   333809.0666      Cuts: 29     2510   71.16%
*     0+    0                       320982.4254    96261.7287            70.01%
      0     0  -1.00000e+75     0   320982.4254    96261.7287     2510   70.01%
      0     0    96272.4517   273   320982.4254      Cuts: 11     2614   70.01%
      0     0    96274.5936   256   320982.4254      Cuts: 25     2665   70.01%
Detecting symmetries...
      0     0    96276.5688   258   320982.4254      Cuts: 28     2717   70.01%
Detecting symmetries...
      0     2    96276.5688   258   320982.4254    96276.5688     2717   70.01%
Elapsed time = 3.28 sec. (5382.89 ticks, tree = 0.02 MB, solutions = 5)
     22     9    96282.6776   223   320982.4254    96281.8340     3230   70.00%
     81    49    96360.7133   193   320982.4254    96282.0715     8216   70.00%
    113   101    96341.4297   268   320982.4254    96282.0715    14432   70.00%
    160   124    96353.2886   220   320982.4254    96282.0715    19210   70.00%
    177   166    97391.0259   230   320982.4254    96282.0715    26360   70.00%
    237   184    98491.6859   141   320982.4254    96282.0715    30396   70.00%
    312   247   110290.7392   184   320982.4254    96282.0715    35538   70.00%
    361   297   115762.1125   153   320982.4254    96282.0715    39645   70.00%
    385   330   109680.1624   141   320982.4254    96282.0715    42027   70.00%
    608   482   130628.3473    49   320982.4254    96282.0715    62052   70.00%
Elapsed time = 5.41 sec. (8573.50 ticks, tree = 1.11 MB, solutions = 5)
*   666+  466                       166995.1244    96282.0715            42.34%
    717   564    96372.8480   217   166995.1244    96282.0715    76342   42.34%
*   723+  564                       134853.4346    96282.0715            28.60%
*   725+  564                       128457.5795    96282.0715            25.05%

Implied bound cuts applied:  2
Flow cuts applied:  118
Flow path cuts applied:  0
Zero-half cuts applied:  41
Gomory fractional cuts applied:  4

Root node processing (before b&c):
  Real time             =    3.25 sec. (5351.21 ticks)
Parallel b&c, 8 threads:
  Real time             =    3.26 sec. (4663.08 ticks)
  Sync time (average)   =    0.45 sec.
  Wait time (average)   =    0.00 sec.
                          ------------
Total (root+branch&cut) =    6.51 sec. (10014.29 ticks)
Gap: 25.05%
Upper bound: 128458
Lower bound: 96283.5
End of CPLEX run. Time: 6.50828 seconds

===== New CPLEX run =====
Instance: /home/yorig/tuner/mpils-tests/instances/miplib/medium-1/momentum1.mps
Config: /scratch/yorig/mpils-results-grid-ticks-10000/medium-1/16proc/seed-5/6_momentum1_seed-5_20260425_215516/expansion/config_param_CPXPARAM_MIP_Strategy_VariableSelect_2_iter_1.prm
========================

Selected objective sense:  MINIMIZE
Selected objective  name:  MINIMIZE
Selected RHS        name:  rhs
Selected bound      name:  bnd
Version identifier: 22.1.2.0 | 2024-11-26 | 0edbb82fd
CPXPARAM_Threads                                 8
CPXPARAM_Parallel                                1
CPXPARAM_MIP_Cuts_Cliques                        -1
CPXPARAM_MIP_Strategy_VariableSelect             2
CPXPARAM_MIP_Cuts_FlowCovers                     2
CPXPARAM_MIP_Cuts_Implied                        1
CPXPARAM_MIP_Limits_GomoryCand                   25
CPXPARAM_MIP_Cuts_Gomory                         1
CPXPARAM_MIP_Cuts_PathCut                        1
CPXPARAM_MIP_Cuts_Disjunctive                    -1
CPXPARAM_Emphasis_MIP                            4
CPXPARAM_DetTimeLimit                            10000
Tried aggregator 3 times.
MIP Presolve eliminated 30810 rows and 1362 columns.
MIP Presolve modified 22293 coefficients.
Aggregator did 232 substitutions.
Reduced MIP has 11638 rows, 3580 columns, and 46688 nonzeros.
Reduced MIP has 1625 binaries, 0 generals, 0 SOSs, and 0 indicators.
Presolve time = 0.10 sec. (139.58 ticks)
Found incumbent of value 533875.101733 after 0.12 sec. (154.72 ticks)
Probing fixed 392 vars, tightened 1078 bounds.
Probing changed sense of 113 constraints.
Probing time = 0.08 sec. (90.30 ticks)
Cover probing fixed 0 vars, tightened 267 bounds.
Tried aggregator 2 times.
MIP Presolve eliminated 3295 rows and 847 columns.
MIP Presolve modified 7082 coefficients.
Aggregator did 11 substitutions.
Reduced MIP has 8332 rows, 2722 columns, and 31418 nonzeros.
Reduced MIP has 1168 binaries, 0 generals, 0 SOSs, and 0 indicators.
Presolve time = 0.04 sec. (44.43 ticks)
Probing fixed 1 vars, tightened 256 bounds.
Probing time = 0.04 sec. (44.20 ticks)
Cover probing fixed 0 vars, tightened 190 bounds.
Tried aggregator 1 time.
Detecting symmetries...
MIP Presolve eliminated 26 rows and 2 columns.
MIP Presolve modified 5059 coefficients.
Reduced MIP has 8306 rows, 2720 columns, and 31355 nonzeros.
Reduced MIP has 1167 binaries, 0 generals, 0 SOSs, and 0 indicators.
Presolve time = 0.02 sec. (22.06 ticks)
Probing fixed 0 vars, tightened 90 bounds.
Probing time = 0.04 sec. (40.55 ticks)
Cover probing fixed 0 vars, tightened 69 bounds.
Clique table members: 18692.
MIP emphasis: hidden feasible solutions.
MIP search method: dynamic search.
Parallel mode: deterministic, using up to 8 threads.
Root relaxation solution time = 0.11 sec. (144.31 ticks)

        Nodes                                         Cuts/
   Node  Left     Objective  IInf  Best Integer    Best Bound    ItCnt     Gap

*     0+    0                       533875.1017    44880.8652            91.59%
*     0+    0                       533847.9795    44880.8652            91.59%
*     0+    0                       333826.8649    44880.8652            86.56%
*     0+    0                       333809.0666    44880.8652            86.55%
      0     0    79213.0345   216   333809.0666    79213.0345     1531   76.27%
      0     0    96254.6467   297   333809.0666     Cuts: 174     2064   71.16%
      0     0    96260.5560   272   333809.0666      Cuts: 81     2379   71.16%
      0     0    96261.7287   286   333809.0666      Cuts: 29     2510   71.16%
*     0+    0                       320982.4254    96261.7287            70.01%
      0     0  -1.00000e+75     0   320982.4254    96261.7287     2510   70.01%
      0     0    96272.4517   273   320982.4254      Cuts: 11     2614   70.01%
      0     0    96274.5936   256   320982.4254      Cuts: 25     2665   70.01%
Detecting symmetries...
      0     0    96276.5688   258   320982.4254      Cuts: 28     2717   70.01%
Detecting symmetries...
      0     2    96276.5688   258   320982.4254    96276.5688     2717   70.01%
Elapsed time = 3.50 sec. (5892.55 ticks, tree = 0.02 MB, solutions = 5)
      1     3   102684.9325   241   320982.4254    96276.6160     3170   70.01%
      8     7    96279.6331   238   320982.4254    96276.9693     3300   70.01%
     17    12   102674.4016   253   320982.4254    96279.1041     3872   70.00%
     24     9   102689.8887   274   320982.4254    96280.2992     3464   70.00%
     30    18   102691.2763   254   320982.4254    96280.2992     5174   70.00%
     43    28   102691.4502   283   320982.4254    96284.0053     5806   70.00%
     65    38   109092.7334   231   320982.4254    96284.1566     6921   70.00%
     92    57   109087.1988   230   320982.4254    96285.2076     9473   70.00%
    102    85   102696.9054   255   320982.4254    96285.2076    15215   70.00%
    145   132   106596.1074   201   320982.4254    96291.1610    31557   70.00%
Elapsed time = 5.62 sec. (9507.20 ticks, tree = 0.53 MB, solutions = 5)

Implied bound cuts applied:  2
Flow cuts applied:  116
Flow path cuts applied:  0
Zero-half cuts applied:  42
Gomory fractional cuts applied:  4

Root node processing (before b&c):
  Real time             =    3.48 sec. (5860.57 ticks)
Parallel b&c, 8 threads:
  Real time             =    2.47 sec. (4148.04 ticks)
  Sync time (average)   =    0.44 sec.
  Wait time (average)   =    0.00 sec.
                          ------------
Total (root+branch&cut) =    5.95 sec. (10008.61 ticks)
Gap: 69.99%
Upper bound: 320982
Lower bound: 96322.7
End of CPLEX run. Time: 5.94959 seconds

===== New CPLEX run =====
Instance: /home/yorig/tuner/mpils-tests/instances/miplib/medium-1/momentum1.mps
Config: /scratch/yorig/mpils-results-grid-ticks-10000/medium-1/16proc/seed-5/6_momentum1_seed-5_20260425_215516/expansion/config_param_CPXPARAM_MIP_Strategy_VariableSelect_3_iter_1.prm
========================

Selected objective sense:  MINIMIZE
Selected objective  name:  MINIMIZE
Selected RHS        name:  rhs
Selected bound      name:  bnd
Version identifier: 22.1.2.0 | 2024-11-26 | 0edbb82fd
CPXPARAM_Threads                                 8
CPXPARAM_Parallel                                1
CPXPARAM_MIP_Cuts_Cliques                        -1
CPXPARAM_MIP_Strategy_VariableSelect             3
CPXPARAM_MIP_Cuts_FlowCovers                     2
CPXPARAM_MIP_Cuts_Implied                        1
CPXPARAM_MIP_Limits_GomoryCand                   25
CPXPARAM_MIP_Cuts_Gomory                         1
CPXPARAM_MIP_Cuts_PathCut                        1
CPXPARAM_MIP_Cuts_Disjunctive                    -1
CPXPARAM_Emphasis_MIP                            4
CPXPARAM_DetTimeLimit                            10000
Tried aggregator 3 times.
MIP Presolve eliminated 30810 rows and 1362 columns.
MIP Presolve modified 22293 coefficients.
Aggregator did 232 substitutions.
Reduced MIP has 11638 rows, 3580 columns, and 46688 nonzeros.
Reduced MIP has 1625 binaries, 0 generals, 0 SOSs, and 0 indicators.
Presolve time = 0.10 sec. (139.58 ticks)
Found incumbent of value 533875.101733 after 0.12 sec. (154.72 ticks)
Probing fixed 392 vars, tightened 1078 bounds.
Probing changed sense of 113 constraints.
Probing time = 0.08 sec. (90.30 ticks)
Cover probing fixed 0 vars, tightened 267 bounds.
Tried aggregator 2 times.
MIP Presolve eliminated 3295 rows and 847 columns.
MIP Presolve modified 7082 coefficients.
Aggregator did 11 substitutions.
Reduced MIP has 8332 rows, 2722 columns, and 31418 nonzeros.
Reduced MIP has 1168 binaries, 0 generals, 0 SOSs, and 0 indicators.
Presolve time = 0.04 sec. (44.43 ticks)
Probing fixed 1 vars, tightened 256 bounds.
Probing time = 0.05 sec. (44.20 ticks)
Cover probing fixed 0 vars, tightened 190 bounds.
Tried aggregator 1 time.
Detecting symmetries...
MIP Presolve eliminated 26 rows and 2 columns.
MIP Presolve modified 5059 coefficients.
Reduced MIP has 8306 rows, 2720 columns, and 31355 nonzeros.
Reduced MIP has 1167 binaries, 0 generals, 0 SOSs, and 0 indicators.
Presolve time = 0.02 sec. (22.06 ticks)
Probing fixed 0 vars, tightened 90 bounds.
Probing time = 0.04 sec. (40.55 ticks)
Cover probing fixed 0 vars, tightened 69 bounds.
Clique table members: 18692.
MIP emphasis: hidden feasible solutions.
MIP search method: dynamic search.
Parallel mode: deterministic, using up to 8 threads.
Root relaxation solution time = 0.11 sec. (144.31 ticks)

        Nodes                                         Cuts/
   Node  Left     Objective  IInf  Best Integer    Best Bound    ItCnt     Gap

*     0+    0                       533875.1017    44880.8652            91.59%
*     0+    0                       533847.9795    44880.8652            91.59%
*     0+    0                       333826.8649    44880.8652            86.56%
*     0+    0                       333809.0666    44880.8652            86.55%
      0     0    79213.0345   216   333809.0666    79213.0345     1531   76.27%
      0     0    96254.6467   297   333809.0666     Cuts: 174     2064   71.16%
      0     0    96260.5560   272   333809.0666      Cuts: 81     2379   71.16%
      0     0    96261.7287   286   333809.0666      Cuts: 29     2510   71.16%
*     0+    0                       320982.4254    96261.7287            70.01%
      0     0  -1.00000e+75     0   320982.4254    96261.7287     2510   70.01%
      0     0    96272.4517   273   320982.4254      Cuts: 11     2614   70.01%
      0     0    96274.5936   256   320982.4254      Cuts: 25     2665   70.01%
Detecting symmetries...
      0     0    96276.5688   258   320982.4254      Cuts: 28     2717   70.01%
Detecting symmetries...
      0     2    96276.5688   258   320982.4254    96276.5688     2717   70.01%
Elapsed time = 3.20 sec. (5472.35 ticks, tree = 0.02 MB, solutions = 5)
      1     3    96278.3391   240   320982.4254    96276.6658     2817   70.01%
      4     4   102691.1083   229   320982.4254    96276.6658     3020   70.01%
      8     6    96279.7995   228   320982.4254    96279.7995     3316   70.00%
     15     9    96285.9017   238   320982.4254    96279.7995     4216   70.00%
     22    18   109095.1990   197   320982.4254    96283.0158     6336   70.00%
     27    24   109115.5019   192   320982.4254    96288.7197     8242   70.00%
     36    27    96379.6421   278   320982.4254    96288.7197     9340   70.00%
     45    40   109117.4018   206   320982.4254    96288.7197    12906   70.00%
     54    38   109135.8699   250   320982.4254    96288.7197    12984   70.00%
     79    72   115575.1532   131   320982.4254    96288.7197    19421   70.00%
Elapsed time = 5.10 sec. (9068.67 ticks, tree = 0.27 MB, solutions = 5)

Implied bound cuts applied:  2
Flow cuts applied:  115
Flow path cuts applied:  0
Zero-half cuts applied:  41
Gomory fractional cuts applied:  4

Root node processing (before b&c):
  Real time             =    3.17 sec. (5440.39 ticks)
Parallel b&c, 8 threads:
  Real time             =    2.41 sec. (4563.84 ticks)
  Sync time (average)   =    0.48 sec.
  Wait time (average)   =    0.00 sec.
                          ------------
Total (root+branch&cut) =    5.58 sec. (10004.24 ticks)
Gap: 70%
Upper bound: 320982
Lower bound: 96288.7
End of CPLEX run. Time: 5.57981 seconds
